30
1 0 1
2 0 1
2 1 5
3 0 1
3 1 2
3 2 1
4 0 8
4 1 7
4 2 6
4 3 7
5 0 2
5 1 10
5 2 8
5 3 5
5 4 1
6 0 4
6 1 7
6 2 4
6 3 7
6 4 8
6 5 7
7 0 3
7 1 4
7 2 2
7 3 7
7 4 8
7 5 6
7 6 1
8 0 2
8 1 6
8 2 7
8 3 9
8 4 7
8 5 5
8 6 5
8 7 7
9 0 8
9 1 8
9 2 9
9 3 5
9 4 6
9 5 7
9 6 1
9 7 2
9 8 6
10 0 1
10 1 9
10 2 10
10 3 1
10 4 4
10 5 1
10 6 6
10 7 9
10 8 10
10 9 4
11 0 4
11 1 8
11 2 5
11 3 4
11 4 5
11 5 8
11 6 7
11 7 3
11 8 5
11 9 2
11 10 5
12 0 1
12 1 7
12 2 8
12 3 6
12 4 5
12 5 8
12 6 6
12 7 7
12 8 2
12 9 4
12 10 7
12 11 10
13 0 3
13 1 6
13 2 8
13 3 6
13 4 2
13 5 7
13 6 5
13 7 9
13 8 1
13 9 5
13 10 4
13 11 8
13 12 4
14 0 9
14 1 8
14 2 7
14 3 7
14 4 3
14 5 6
14 6 3
14 7 3
14 8 7
14 9 2
14 10 5
14 11 1
14 12 5
14 13 6
15 0 9
15 1 6
15 2 6
15 3 6
15 4 5
15 5 10
15 6 10
15 7 8
15 8 2
15 9 8
15 10 7
15 11 5
15 12 8
15 13 7
15 14 8
16 0 2
16 1 10
16 2 5
16 3 7
16 4 8
16 5 9
16 6 9
16 7 2
16 8 3
16 9 1
16 10 10
16 11 2
16 12 9
16 13 9
16 14 5
16 15 9
17 0 1
17 1 5
17 2 6
17 3 2
17 4 9
17 5 10
17 6 8
17 7 9
17 8 7
17 9 4
17 10 1
17 11 3
17 12 4
17 13 6
17 14 3
17 15 6
17 16 2
18 0 4
18 1 10
18 2 5
18 3 1
18 4 6
18 5 8
18 6 2
18 7 1
18 8 6
18 9 2
18 10 3
18 11 4
18 12 2
18 13 9
18 14 9
18 15 4
18 16 5
18 17 8
19 0 8
19 1 1
19 2 4
19 3 8
19 4 8
19 5 3
19 6 7
19 7 4
19 8 7
19 9 2
19 10 5
19 11 2
19 12 10
19 13 10
19 14 2
19 15 3
19 16 7
19 17 8
19 18 1
20 0 2
20 1 1
20 2 5
20 3 3
20 4 7
20 5 2
20 6 1
20 7 1
20 8 7
20 9 4
20 10 10
20 11 4
20 12 7
20 13 7
20 14 7
20 15 2
20 16 7
20 17 7
20 18 8
20 19 10
21 0 7
21 1 4
21 2 6
21 3 4
21 4 10
21 5 5
21 6 7
21 7 1
21 8 2
21 9 6
21 10 8
21 11 1
21 12 4
21 13 2
21 14 4
21 15 8
21 16 2
21 17 9
21 18 6
21 19 1
21 20 5
22 0 7
22 1 8
22 2 5
22 3 2
22 4 3
22 5 5
22 6 10
22 7 2
22 8 5
22 9 5
22 10 8
22 11 4
22 12 8
22 13 5
22 14 3
22 15 8
22 16 8
22 17 7
22 18 9
22 19 2
22 20 9
22 21 2
23 0 5
23 1 1
23 2 9
23 3 9
23 4 9
23 5 4
23 6 2
23 7 8
23 8 1
23 9 1
23 10 7
23 11 5
23 12 10
23 13 3
23 14 6
23 15 8
23 16 10
23 17 5
23 18 7
23 19 1
23 20 4
23 21 10
23 22 1
24 0 5
24 1 4
24 2 4
24 3 10
24 4 10
24 5 9
24 6 4
24 7 6
24 8 3
24 9 9
24 10 4
24 11 2
24 12 10
24 13 5
24 14 9
24 15 7
24 16 7
24 17 10
24 18 8
24 19 4
24 20 9
24 21 4
24 22 10
24 23 7
25 0 2
25 1 7
25 2 10
25 3 5
25 4 7
25 5 9
25 6 7
25 7 4
25 8 8
25 9 5
25 10 4
25 11 1
25 12 2
25 13 4
25 14 8
25 15 3
25 16 8
25 17 4
25 18 1
25 19 9
25 20 7
25 21 3
25 22 9
25 23 10
25 24 2
26 0 6
26 1 7
26 2 9
26 3 3
26 4 2
26 5 5
26 6 7
26 7 4
26 8 9
26 9 6
26 10 7
26 11 4
26 12 3
26 13 1
26 14 1
26 15 7
26 16 9
26 17 1
26 18 6
26 19 7
26 20 2
26 21 5
26 22 3
26 23 7
26 24 3
26 25 2
27 0 6
27 1 6
27 2 2
27 3 8
27 4 3
27 5 6
27 6 9
27 7 3
27 8 1
27 9 6
27 10 5
27 11 3
27 12 10
27 13 6
27 14 9
27 15 2
27 16 1
27 17 6
27 18 4
27 19 8
27 20 7
27 21 2
27 22 6
27 23 4
27 24 2
27 25 10
27 26 3
28 0 7
28 1 5
28 2 3
28 3 5
28 4 2
28 5 7
28 6 10
28 7 3
28 8 8
28 9 7
28 10 5
28 11 2
28 12 4
28 13 8
28 14 9
28 15 9
28 16 6
28 17 3
28 18 3
28 19 2
28 20 1
28 21 5
28 22 3
28 23 5
28 24 1
28 25 4
28 26 8
28 27 3
29 0 10
29 1 6
29 2 8
29 3 7
29 4 1
29 5 3
29 6 10
29 7 4
29 8 3
29 9 10
29 10 8
29 11 3
29 12 8
29 13 2
29 14 9
29 15 3
29 16 8
29 17 10
29 18 7
29 19 7
29 20 1
29 21 3
29 22 9
29 23 7
29 24 1
29 25 1
29 26 1
29 27 1
29 28 7
